20	5
0	3	7	2	1
1	0
2	0
3	1	15
4	1	12
5	1	13
6	1	11
7	1	3
8	1	14
9	1	19
10	1	4
11	1	16
12	2	18	19
13	1	6
14	1	17
15	1	10
16	1	8
17	1	20
18	1	5
19	1	21
20	1	21
21	0
0	0	0	0	0	0	0
1	5	3	1	5	5	3
2	5	2	0	0	0	4
3	8	0	0	0	2	2
4	5	0	0	4	0	0
5	7	3	5	0	0	1
6	6	0	0	0	4	3
7	7	0	0	0	3	4
8	6	4	0	0	0	0
9	9	1	1	5	0	1
10	1	0	0	0	0	1
11	5	0	2	4	0	0
12	5	0	3	2	2	0
13	9	0	0	4	4	0
14	9	0	1	1	0	1
15	2	0	3	3	2	0
16	1	3	0	0	0	5
17	2	0	0	0	2	1
18	7	2	0	3	2	5
19	9	3	1	3	3	1
20	9	0	0	0	5	0
21	0	0	0	0	0	0
4	5	6	6	7
